NAME : block_14.618202.tour
COMMENT : Length = 618202
COMMENT : Found by LKH-3 [Keld Helsgaun] Wed Apr 22 15:45:23 2026
TYPE : TOUR
DIMENSION : 176
TOUR_SECTION
123
104
84
63
43
25
15
14
8
9
10
16
26
44
64
85
105
124
142
157
158
143
125
106
86
65
45
27
17
18
19
29
28
46
66
87
107
126
144
159
160
145
127
108
88
67
47
48
68
89
109
128
146
161
162
147
129
110
90
91
111
130
148
163
170
171
164
149
131
112
92
71
51
52
72
93
113
132
150
165
172
173
166
151
133
114
94
73
53
54
74
95
115
134
152
167
174
175
168
153
135
116
117
136
154
169
155
137
118
98
78
77
57
56
76
97
96
75
55
37
36
35
34
33
32
50
70
69
49
31
30
2
176
1
20
38
58
79
99
119
100
80
59
39
21
11
5
6
3
4
7
13
12
22
40
60
81
101
120
138
139
121
102
82
61
41
23
24
42
62
83
103
122
140
156
141
-1
EOF
